NAME: random-81-20995
TYPE: TSP
COMMENT: size=81 seed=20995
DIMENSION: 164
EDGE_WEIGHT_TYPE: EUC_2D
NODE_COORD_SECTION
+0 965 388
-0 965 388
+1 655 381
-1 691 566
+2 518 374
-2 803 640
+3 978 715
-3 131 198
+4 135 188
-4 97 199
+5 530 709
-5 300 717
+6 245 221
-6 795 947
+7 669 838
-7 51 576
+8 470 253
-8 212 358
+9 651 895
-9 623 405
+10 823 324
-10 751 368
+11 909 953
-11 993 167
+12 955 401
-12 471 472
+13 636 443
-13 986 285
+14 922 658
-14 414 148
+15 919 646
-15 422 274
+16 37 698
-16 326 72
+17 854 779
-17 246 40
+18 226 240
-18 741 33
+19 200 323
-19 286 665
+20 565 626
-20 404 757
+21 899 626
-21 796 170
+22 744 725
-22 995 528
+23 732 518
-23 970 803
+24 223 766
-24 672 793
+25 335 34
-25 235 139
+26 446 563
-26 753 644
+27 190 625
-27 76 475
+28 254 578
-28 479 844
+29 252 503
-29 925 454
+30 930 907
-30 916 354
+31 117 566
-31 358 58
+32 311 288
-32 856 392
+33 658 52
-33 465 315
+34 201 681
-34 76 951
+35 367 319
-35 938 545
+36 252 496
-36 681 185
+37 754 338
-37 66 344
+38 563 534
-38 536 368
+39 535 769
-39 478 950
+40 44 176
-40 4 401
+41 845 820
-41 662 73
+42 46 72
-42 32 712
+43 240 275
-43 103 560
+44 386 313
-44 911 592
+45 389 3
-45 639 985
+46 158 282
-46 124 521
+47 488 669
-47 862 726
+48 890 317
-48 279 842
+49 259 197
-49 324 82
+50 925 451
-50 835 81
+51 356 47
-51 944 235
+52 18 291
-52 359 524
+53 889 263
-53 940 417
+54 243 164
-54 111 75
+55 831 426
-55 656 24
+56 399 350
-56 631 952
+57 937 627
-57 827 5
+58 790 546
-58 840 218
+59 290 417
-59 719 320
+60 571 621
-60 420 525
+61 283 810
-61 148 532
+62 416 165
-62 16 164
+63 268 325
-63 198 565
+64 769 9
-64 422 610
+65 604 619
-65 660 848
+66 475 486
-66 347 199
+67 768 814
-67 885 604
+68 952 876
-68 976 954
+69 190 801
-69 7 69
+70 536 601
-70 761 994
+71 899 225
-71 252 402
+72 264 194
-72 978 138
+73 808 432
-73 877 914
+74 53 115
-74 511 278
+75 536 751
-75 618 364
+76 952 107
-76 548 851
+77 549 655
-77 755 220
+78 252 552
-78 223 597
+79 274 527
-79 327 110
+80 27 885
-80 130 847
+81 273 78
-81 454 506
PRECEDENCE_SECTION
+0 -0
+1 -1
+2 -2
+3 -3
+4 -4
+5 -5
+6 -6
+7 -7
+8 -8
+9 -9
+10 -10
+11 -11
+12 -12
+13 -13
+14 -14
+15 -15
+16 -16
+17 -17
+18 -18
+19 -19
+20 -20
+21 -21
+22 -22
+23 -23
+24 -24
+25 -25
+26 -26
+27 -27
+28 -28
+29 -29
+30 -30
+31 -31
+32 -32
+33 -33
+34 -34
+35 -35
+36 -36
+37 -37
+38 -38
+39 -39
+40 -40
+41 -41
+42 -42
+43 -43
+44 -44
+45 -45
+46 -46
+47 -47
+48 -48
+49 -49
+50 -50
+51 -51
+52 -52
+53 -53
+54 -54
+55 -55
+56 -56
+57 -57
+58 -58
+59 -59
+60 -60
+61 -61
+62 -62
+63 -63
+64 -64
+65 -65
+66 -66
+67 -67
+68 -68
+69 -69
+70 -70
+71 -71
+72 -72
+73 -73
+74 -74
+75 -75
+76 -76
+77 -77
+78 -78
+79 -79
+80 -80
+81 -81
EOF
